140	22	4	86	
15	11	13	12

0	0	0	0	0	0	3	1	2	3
1	7	7	7	4	3	1	7
2	0	0	0	6	8	1	6
3	7	6	0	9	4	2	4	7
4	9	3	4	3	8	1	5
5	6	7	2	6	9	3	6	10	11
6	10	7	8	4	7	1	8
7	4	0	3	6	9	1	11
8	4	0	1	3	7	1	9
9	5	2	0	0	1	1	12
10	10	5	2	7	5	1	13
11	10	0	10	6	6	2	15	16
12	9	8	10	4	10	1	13
13	0	10	6	0	10	2	14	16
14	3	5	3	0	8	2	15	18
15	8	0	6	6	8	2	17	19
16	1	5	0	4	8	1	18
17	0	3	2	0	4	1	20
18	0	0	3	2	9	1	19
19	0	0	3	1	6	1	21
20	4	7	2	9	10	1	21
21	0	0	0	0	0	0
